(set-info :source |printed by MathSAT|)
(declare-fun hhv_ULTIMATE.start_L-1_0_Int () Int)
(declare-fun .x.121 () Int)
(declare-fun hhv_ULTIMATE.start_L-1_1_Array_Int_Array_Int_Int () (Array Int (Array Int Int)))
(declare-fun .x.122 () (Array Int (Array Int Int)))
(declare-fun hhv_ULTIMATE.start_L-1_2_Array_Int_Array_Int_Int () (Array Int (Array Int Int)))
(declare-fun .x.123 () (Array Int (Array Int Int)))
(declare-fun hbv_ULTIMATE.start_ULTIMATE.startENTRY_3_Array_Int_Int () (Array Int Int))
(declare-fun .x.124 () (Array Int Int))
(declare-fun hhv_ULTIMATE.start_L-1_4_Array_Int_Int () (Array Int Int))
(declare-fun .x.125 () (Array Int Int))
(declare-fun hhv_ULTIMATE.start_L-1_5_Array_Int_Array_Int_Int () (Array Int (Array Int Int)))
(declare-fun .x.126 () (Array Int (Array Int Int)))
(declare-fun hhv_ULTIMATE.start_L-1_6_Array_Int_Array_Int_Int () (Array Int (Array Int Int)))
(declare-fun .x.127 () (Array Int (Array Int Int)))
(declare-fun hbv_ULTIMATE.start_ULTIMATE.startENTRY_7_Int () Int)
(declare-fun .x.128 () Int)
(declare-fun hhv_ULTIMATE.start_L-1_8_Int () Int)
(declare-fun .x.129 () Int)
(declare-fun hhv_ULTIMATE.start_L-1_9_Array_Int_Int () (Array Int Int))
(declare-fun .x.130 () (Array Int Int))
(declare-fun hhv_ULTIMATE.start_L-1_10_Array_Int_Int () (Array Int Int))
(declare-fun .x.131 () (Array Int Int))
(declare-fun hbv_ULTIMATE.start_ULTIMATE.startENTRY_11_Int () Int)
(declare-fun .x.132 () Int)
(declare-fun hhv_ULTIMATE.start_L-1_12_Int () Int)
(declare-fun .x.133 () Int)
(declare-fun hhv_ULTIMATE.start_L-1_13_Array_Int_Array_Int_Int () (Array Int (Array Int Int)))
(declare-fun .x.134 () (Array Int (Array Int Int)))
(declare-fun hhv_ULTIMATE.start_L-1_14_Array_Int_Array_Int_Int () (Array Int (Array Int Int)))
(declare-fun .x.135 () (Array Int (Array Int Int)))
(declare-fun hhv_ULTIMATE.start_L-1_15_Int () Int)
(declare-fun .x.136 () Int)
(declare-fun hhv_ULTIMATE.start_L-1_16_Int () Int)
(declare-fun .x.137 () Int)
(declare-fun hhv_ULTIMATE.start_L-1_17_Int () Int)
(declare-fun .x.138 () Int)
(declare-fun hhv_ULTIMATE.start_L-1_18_Int () Int)
(declare-fun .x.139 () Int)
(declare-fun hhv_ULTIMATE.start_L-1_19_Int () Int)
(declare-fun .x.140 () Int)
(declare-fun hhv_ULTIMATE.start_L-1_20_Int () Int)
(declare-fun .x.141 () Int)
(declare-fun hhv_ULTIMATE.start_L-1_21_Int () Int)
(declare-fun .x.142 () Int)
(declare-fun hhv_ULTIMATE.start_L-1_22_Int () Int)
(declare-fun .x.143 () Int)
(declare-fun hhv_ULTIMATE.start_L-1_23_Int () Int)
(declare-fun .x.144 () Int)
(declare-fun hhv_ULTIMATE.start_L-1_24_Int () Int)
(declare-fun .x.145 () Int)
(declare-fun hhv_ULTIMATE.start_L-1_25_Int () Int)
(declare-fun .x.146 () Int)
(declare-fun hhv_ULTIMATE.start_L-1_26_Int () Int)
(declare-fun .x.147 () Int)
(declare-fun hhv_ULTIMATE.start_L-1_27_Int () Int)
(declare-fun .x.148 () Int)
(declare-fun hhv_ULTIMATE.start_L-1_28_Int () Int)
(declare-fun .x.149 () Int)
(declare-fun hhv_ULTIMATE.start_L-1_29_Int () Int)
(declare-fun .x.150 () Int)
(declare-fun hhv_ULTIMATE.start_L-1_30_Int () Int)
(declare-fun .x.151 () Int)
(declare-fun hhv_ULTIMATE.start_L-1_31_Int () Int)
(declare-fun .x.152 () Int)
(declare-fun hhv_ULTIMATE.start_L-1_32_Int () Int)
(declare-fun .x.153 () Int)
(declare-fun hhv_ULTIMATE.start_L-1_33_Int () Int)
(declare-fun .x.154 () Int)
(declare-fun hhv_ULTIMATE.start_L-1_34_Int () Int)
(declare-fun .x.155 () Int)
(declare-fun hhv_ULTIMATE.start_L-1_35_Int () Int)
(declare-fun .x.156 () Int)
(declare-fun hhv_ULTIMATE.start_L-1_36_Bool () Bool)
(declare-fun hhv_ULTIMATE.start_ULTIMATE.startEXIT_36_Bool () Bool)
(declare-fun .loc.3 () Bool)
(declare-fun .loc.5 () Bool)
(declare-fun .loc.4 () Bool)
(declare-fun .loc.6 () Bool)
(declare-fun hbv_ULTIMATE.start_L-1_3_Array_Int_Int () (Array Int Int))
(define-fun .def_8 () Int (! hhv_ULTIMATE.start_L-1_0_Int :next |.x.121|))
(define-fun .def_10 () (Array Int (Array Int Int)) (! hhv_ULTIMATE.start_L-1_1_Array_Int_Array_Int_Int :next |.x.122|))
(define-fun .def_12 () (Array Int (Array Int Int)) (! hhv_ULTIMATE.start_L-1_2_Array_Int_Array_Int_Int :next |.x.123|))
(define-fun .def_14 () (Array Int Int) (! hbv_ULTIMATE.start_ULTIMATE.startENTRY_3_Array_Int_Int :next |.x.124|))
(define-fun .def_16 () (Array Int Int) (! hhv_ULTIMATE.start_L-1_4_Array_Int_Int :next |.x.125|))
(define-fun .def_18 () (Array Int (Array Int Int)) (! hhv_ULTIMATE.start_L-1_5_Array_Int_Array_Int_Int :next |.x.126|))
(define-fun .def_20 () (Array Int (Array Int Int)) (! hhv_ULTIMATE.start_L-1_6_Array_Int_Array_Int_Int :next |.x.127|))
(define-fun .def_22 () Int (! hbv_ULTIMATE.start_ULTIMATE.startENTRY_7_Int :next |.x.128|))
(define-fun .def_24 () Int (! hhv_ULTIMATE.start_L-1_8_Int :next |.x.129|))
(define-fun .def_26 () (Array Int Int) (! hhv_ULTIMATE.start_L-1_9_Array_Int_Int :next |.x.130|))
(define-fun .def_28 () (Array Int Int) (! hhv_ULTIMATE.start_L-1_10_Array_Int_Int :next |.x.131|))
(define-fun .def_30 () Int (! hbv_ULTIMATE.start_ULTIMATE.startENTRY_11_Int :next |.x.132|))
(define-fun .def_32 () Int (! hhv_ULTIMATE.start_L-1_12_Int :next |.x.133|))
(define-fun .def_34 () (Array Int (Array Int Int)) (! hhv_ULTIMATE.start_L-1_13_Array_Int_Array_Int_Int :next |.x.134|))
(define-fun .def_36 () (Array Int (Array Int Int)) (! hhv_ULTIMATE.start_L-1_14_Array_Int_Array_Int_Int :next |.x.135|))
(define-fun .def_38 () Int (! hhv_ULTIMATE.start_L-1_15_Int :next |.x.136|))
(define-fun .def_40 () Int (! hhv_ULTIMATE.start_L-1_16_Int :next |.x.137|))
(define-fun .def_42 () Int (! hhv_ULTIMATE.start_L-1_17_Int :next |.x.138|))
(define-fun .def_44 () Int (! hhv_ULTIMATE.start_L-1_18_Int :next |.x.139|))
(define-fun .def_46 () Int (! hhv_ULTIMATE.start_L-1_19_Int :next |.x.140|))
(define-fun .def_48 () Int (! hhv_ULTIMATE.start_L-1_20_Int :next |.x.141|))
(define-fun .def_50 () Int (! hhv_ULTIMATE.start_L-1_21_Int :next |.x.142|))
(define-fun .def_52 () Int (! hhv_ULTIMATE.start_L-1_22_Int :next |.x.143|))
(define-fun .def_54 () Int (! hhv_ULTIMATE.start_L-1_23_Int :next |.x.144|))
(define-fun .def_56 () Int (! hhv_ULTIMATE.start_L-1_24_Int :next |.x.145|))
(define-fun .def_58 () Int (! hhv_ULTIMATE.start_L-1_25_Int :next |.x.146|))
(define-fun .def_60 () Int (! hhv_ULTIMATE.start_L-1_26_Int :next |.x.147|))
(define-fun .def_62 () Int (! hhv_ULTIMATE.start_L-1_27_Int :next |.x.148|))
(define-fun .def_64 () Int (! hhv_ULTIMATE.start_L-1_28_Int :next |.x.149|))
(define-fun .def_66 () Int (! hhv_ULTIMATE.start_L-1_29_Int :next |.x.150|))
(define-fun .def_68 () Int (! hhv_ULTIMATE.start_L-1_30_Int :next |.x.151|))
(define-fun .def_70 () Int (! hhv_ULTIMATE.start_L-1_31_Int :next |.x.152|))
(define-fun .def_72 () Int (! hhv_ULTIMATE.start_L-1_32_Int :next |.x.153|))
(define-fun .def_74 () Int (! hhv_ULTIMATE.start_L-1_33_Int :next |.x.154|))
(define-fun .def_76 () Int (! hhv_ULTIMATE.start_L-1_34_Int :next |.x.155|))
(define-fun .def_78 () Int (! hhv_ULTIMATE.start_L-1_35_Int :next |.x.156|))
(define-fun .def_80 () Bool (! hhv_ULTIMATE.start_L-1_36_Bool :next |hhv_ULTIMATE.start_ULTIMATE.startEXIT_36_Bool|))
(define-fun .def_82 () Bool (! .loc.3 :next |.loc.5|))
(define-fun .def_84 () Bool (! .loc.4 :next |.loc.6|))
(define-fun .def_92 () (Array Int Int) (! hbv_ULTIMATE.start_L-1_3_Array_Int_Int :next |.xtv.1|))
(define-fun .def_322 () Bool (not .def_84))
(define-fun .def_99 () Bool (not .def_82))
(define-fun .def_340 () Bool (and .def_99 .def_322))
(define-fun .def_332 () Bool (= .def_14 .def_16))
(define-fun .def_331 () Bool (= .def_18 .def_20))
(define-fun .def_333 () Bool (and .def_331 .def_332))
(define-fun .def_330 () Bool (= .def_26 .def_28))
(define-fun .def_334 () Bool (and .def_330 .def_333))
(define-fun .def_329 () Bool (not .def_80))
(define-fun .def_335 () Bool (and .def_329 .def_334))
(define-fun .def_328 () Bool (= .def_10 .def_12))
(define-fun .def_336 () Bool (and .def_328 .def_335))
(define-fun .def_327 () Bool (= .def_30 .def_32))
(define-fun .def_337 () Bool (and .def_327 .def_336))
(define-fun .def_326 () Bool (= .def_34 .def_36))
(define-fun .def_338 () Bool (and .def_326 .def_337))
(define-fun .def_325 () Bool (= .def_22 .def_24))
(define-fun .def_339 () Bool (and .def_325 .def_338))
(define-fun .def_341 () Bool (! (and .def_339 .def_340) :init true))
(define-fun .def_320 () Bool (= .def_36 .x.135))
(define-fun .def_318 () Bool (= .def_32 .x.133))
(define-fun .def_316 () Bool (= .def_28 .x.131))
(define-fun .def_314 () Bool (= .def_24 .x.129))
(define-fun .def_312 () Bool (= .def_20 .x.127))
(define-fun .def_310 () Bool (= .def_16 .x.125))
(define-fun .def_308 () Bool (= .def_8 .x.121))
(define-fun .def_307 () Bool (= .def_12 .x.123))
(define-fun .def_309 () Bool (and .def_307 .def_308))
(define-fun .def_311 () Bool (and .def_309 .def_310))
(define-fun .def_313 () Bool (and .def_311 .def_312))
(define-fun .def_315 () Bool (and .def_313 .def_314))
(define-fun .def_317 () Bool (and .def_315 .def_316))
(define-fun .def_319 () Bool (and .def_317 .def_318))
(define-fun .def_321 () Bool (and .def_319 .def_320))
(define-fun .def_323 () Bool (and .def_321 .def_322))
(define-fun .def_302 () Bool (not .loc.5))
(define-fun .def_303 () Bool (and .loc.6 .def_302))
(define-fun .def_110 () Bool (= .x.139 0))
(define-fun .def_298 () Bool (or .def_80 .def_110))
(define-fun .def_120 () Int (+ .x.144 4))
(define-fun .def_121 () (Array Int Int) (select .def_34 .x.156))
(define-fun .def_122 () Int (select .def_121 .def_120))
(define-fun .def_127 () Int (+ .def_122 4))
(define-fun .def_124 () (Array Int Int) (select .def_10 .x.156))
(define-fun .def_125 () Int (select .def_124 .def_120))
(define-fun .def_126 () (Array Int Int) (select .def_34 .def_125))
(define-fun .def_128 () Int (select .def_126 .def_127))
(define-fun .def_129 () (Array Int Int) (select .def_10 .def_125))
(define-fun .def_130 () Int (select .def_129 .def_127))
(define-fun .def_245 () (Array Int Int) (select .x.134 .def_130))
(define-fun .def_246 () Int (select .def_245 .def_128))
(define-fun .def_247 () (Array Int Int) (select .def_34 .def_130))
(define-fun .def_248 () (Array Int Int) (store .def_247 .def_128 .def_246))
(define-fun .def_249 () (Array Int (Array Int Int)) (store .def_34 .def_130 .def_248))
(define-fun .def_250 () Bool (= .x.134 .def_249))
(define-fun .def_213 () (Array Int Int) (store .def_92 .x.137 1))
(define-fun .def_214 () (Array Int Int) (store .def_213 .x.148 1))
(define-fun .def_242 () Int (select .def_214 .x.141))
(define-fun .def_243 () Bool (= .def_242 0))
(define-fun .def_238 () (Array Int Int) (select .def_18 .x.148))
(define-fun .def_239 () Int (select .def_238 .x.138))
(define-fun .def_240 () Bool (= .def_239 2))
(define-fun .def_234 () Bool (= .x.141 0))
(define-fun .def_235 () Bool (not .def_234))
(define-fun .def_231 () Int (select .def_213 .x.148))
(define-fun .def_232 () Bool (= .def_231 0))
(define-fun .def_142 () Int (+ .x.146 4))
(define-fun .def_227 () (Array Int Int) (select .def_34 .x.141))
(define-fun .def_228 () Int (select .def_227 .def_142))
(define-fun .def_229 () Bool (= .x.138 .def_228))
(define-fun .def_225 () Bool (= .x.138 0))
(define-fun .def_223 () Bool (= .x.139 .x.150))
(define-fun .def_218 () (Array Int Int) (select .def_18 .def_130))
(define-fun .def_219 () (Array Int Int) (store .def_218 .def_128 4))
(define-fun .def_220 () (Array Int (Array Int Int)) (store .def_18 .def_130 .def_219))
(define-fun .def_221 () Bool (= .x.126 .def_220))
(define-fun .def_215 () (Array Int Int) (store .def_214 .x.141 1))
(define-fun .def_216 () Bool (= .x.124 .def_215))
(define-fun .def_208 () (Array Int Int) (store .def_26 .x.137 4))
(define-fun .def_209 () (Array Int Int) (store .def_208 .x.148 8))
(define-fun .def_210 () (Array Int Int) (store .def_209 .x.141 8))
(define-fun .def_211 () Bool (= .x.130 .def_210))
(define-fun .def_179 () Int (+ .x.138 4))
(define-fun .def_203 () (Array Int Int) (select .def_10 .x.148))
(define-fun .def_204 () Int (select .def_203 .def_179))
(define-fun .def_205 () Bool (= .x.137 .def_204))
(define-fun .def_199 () (Array Int Int) (select .x.134 .x.156))
(define-fun .def_200 () Int (select .def_199 .def_120))
(define-fun .def_201 () Bool (= .x.140 .def_200))
(define-fun .def_195 () (Array Int Int) (select .def_18 .x.137))
(define-fun .def_196 () Int (select .def_195 .x.136))
(define-fun .def_197 () Bool (= .def_196 3))
(define-fun .def_191 () Int (select .def_92 .x.137))
(define-fun .def_192 () Bool (= .def_191 0))
(define-fun .def_187 () Bool (= .x.155 4))
(define-fun .def_188 () Int (ite .def_187 1 0))
(define-fun .def_189 () Bool (= .x.150 .def_188))
(define-fun .def_184 () Bool (= .x.148 0))
(define-fun .def_185 () Bool (not .def_184))
(define-fun .def_180 () (Array Int Int) (select .def_34 .x.148))
(define-fun .def_181 () Int (select .def_180 .def_179))
(define-fun .def_182 () Bool (= .x.136 .def_181))
(define-fun .def_147 () Int (+ .x.140 4))
(define-fun .def_175 () (Array Int Int) (select .x.134 .x.154))
(define-fun .def_176 () Int (select .def_175 .def_147))
(define-fun .def_177 () Bool (= .x.149 .def_176))
(define-fun .def_173 () Bool (= .x.146 0))
(define-fun .def_171 () Bool (= .x.141 .x.156))
(define-fun .def_167 () (Array Int Int) (select .x.126 .x.151))
(define-fun .def_168 () Int (select .def_167 .x.149))
(define-fun .def_169 () Bool (= .x.155 .def_168))
(define-fun .def_163 () (Array Int Int) (select .def_18 .x.141))
(define-fun .def_164 () Int (select .def_163 .x.146))
(define-fun .def_165 () Bool (= .def_164 1))
(define-fun .def_159 () Bool (= .x.137 0))
(define-fun .def_160 () Bool (not .def_159))
(define-fun .def_155 () (Array Int Int) (select .x.122 .x.156))
(define-fun .def_156 () Int (select .def_155 .def_120))
(define-fun .def_157 () Bool (= .x.154 .def_156))
(define-fun .def_152 () Bool (<= .x.121 .x.137))
(define-fun .def_153 () Bool (not .def_152))
(define-fun .def_148 () (Array Int Int) (select .x.122 .x.154))
(define-fun .def_149 () Int (select .def_148 .def_147))
(define-fun .def_150 () Bool (= .x.151 .def_149))
(define-fun .def_143 () (Array Int Int) (select .def_10 .x.141))
(define-fun .def_144 () Int (select .def_143 .def_142))
(define-fun .def_145 () Bool (= .x.148 .def_144))
(define-fun .def_140 () Bool (= .x.136 0))
(define-fun .def_138 () Bool (= .x.144 .x.146))
(define-fun .def_131 () (Array Int Int) (select .x.122 .def_130))
(define-fun .def_132 () Int (select .def_131 .def_128))
(define-fun .def_133 () (Array Int Int) (select .def_10 .def_130))
(define-fun .def_134 () (Array Int Int) (store .def_133 .def_128 .def_132))
(define-fun .def_135 () (Array Int (Array Int Int)) (store .def_10 .def_130 .def_134))
(define-fun .def_136 () Bool (= .x.122 .def_135))
(define-fun .def_116 () Bool (<= .x.121 .x.141))
(define-fun .def_117 () Bool (not .def_116))
(define-fun .def_114 () Bool (<= .x.121 .x.148))
(define-fun .def_115 () Bool (not .def_114))
(define-fun .def_118 () Bool (and .def_115 .def_117))
(define-fun .def_137 () Bool (and .def_118 .def_136))
(define-fun .def_139 () Bool (and .def_137 .def_138))
(define-fun .def_141 () Bool (and .def_139 .def_140))
(define-fun .def_146 () Bool (and .def_141 .def_145))
(define-fun .def_151 () Bool (and .def_146 .def_150))
(define-fun .def_154 () Bool (and .def_151 .def_153))
(define-fun .def_158 () Bool (and .def_154 .def_157))
(define-fun .def_161 () Bool (and .def_158 .def_160))
(define-fun .def_166 () Bool (and .def_161 .def_165))
(define-fun .def_170 () Bool (and .def_166 .def_169))
(define-fun .def_172 () Bool (and .def_170 .def_171))
(define-fun .def_174 () Bool (and .def_172 .def_173))
(define-fun .def_178 () Bool (and .def_174 .def_177))
(define-fun .def_183 () Bool (and .def_178 .def_182))
(define-fun .def_186 () Bool (and .def_183 .def_185))
(define-fun .def_190 () Bool (and .def_186 .def_189))
(define-fun .def_193 () Bool (and .def_190 .def_192))
(define-fun .def_198 () Bool (and .def_193 .def_197))
(define-fun .def_202 () Bool (and .def_198 .def_201))
(define-fun .def_206 () Bool (and .def_202 .def_205))
(define-fun .def_212 () Bool (and .def_206 .def_211))
(define-fun .def_217 () Bool (and .def_212 .def_216))
(define-fun .def_222 () Bool (and .def_217 .def_221))
(define-fun .def_224 () Bool (and .def_222 .def_223))
(define-fun .def_226 () Bool (and .def_224 .def_225))
(define-fun .def_230 () Bool (and .def_226 .def_229))
(define-fun .def_233 () Bool (and .def_230 .def_232))
(define-fun .def_236 () Bool (and .def_233 .def_235))
(define-fun .def_241 () Bool (and .def_236 .def_240))
(define-fun .def_244 () Bool (and .def_241 .def_243))
(define-fun .def_251 () Bool (and .def_244 .def_250))
(define-fun .def_296 () Bool (or .def_80 .def_251))
(define-fun .def_91 () (Array Int Int) (store .def_14 0 0))
(define-fun .def_93 () Bool (= .def_91 .def_92))
(define-fun .def_89 () Bool (= .x.132 0))
(define-fun .def_88 () Bool (= .x.128 0))
(define-fun .def_90 () Bool (and .def_88 .def_89))
(define-fun .def_94 () Bool (and .def_90 .def_93))
(define-fun .def_95 () Bool (or .def_80 .def_94))
(define-fun .def_294 () Bool (and hhv_ULTIMATE.start_ULTIMATE.startEXIT_36_Bool .def_95))
(define-fun .def_97 () Bool (= .def_50 .x.142))
(define-fun .def_295 () Bool (and .def_97 .def_294))
(define-fun .def_297 () Bool (and .def_295 .def_296))
(define-fun .def_299 () Bool (and .def_297 .def_298))
(define-fun .def_300 () Bool (and .def_99 .def_299))
(define-fun .def_290 () Bool (= .x.145 0))
(define-fun .def_286 () (Array Int Int) (store .def_14 .def_40 0))
(define-fun .def_287 () (Array Int Int) (store .def_286 .def_62 0))
(define-fun .def_288 () (Array Int Int) (store .def_287 .def_48 0))
(define-fun .def_289 () Bool (= .x.124 .def_288))
(define-fun .def_291 () Bool (and .def_289 .def_290))
(define-fun .def_292 () Bool (or .def_80 .def_291))
(define-fun .def_284 () Bool (= .def_10 .x.122))
(define-fun .def_282 () Bool (= .def_18 .x.126))
(define-fun .def_280 () Bool (= .def_22 .x.128))
(define-fun .def_278 () Bool (= .def_26 .x.130))
(define-fun .def_276 () Bool (= .def_30 .x.132))
(define-fun .def_274 () Bool (= .def_34 .x.134))
(define-fun .def_272 () Bool (= .def_44 .x.139))
(define-fun .def_270 () Bool (= .def_52 .x.143))
(define-fun .def_268 () Bool (= .def_54 .x.144))
(define-fun .def_266 () Bool (= .def_60 .x.147))
(define-fun .def_264 () Bool (= .def_66 .x.150))
(define-fun .def_262 () Bool (= .def_70 .x.152))
(define-fun .def_260 () Bool (= .def_72 .x.153))
(define-fun .def_258 () Bool (= .def_78 .x.156))
(define-fun .def_254 () Bool (= .x.142 .x.145))
(define-fun .def_255 () Bool (or hhv_ULTIMATE.start_ULTIMATE.startEXIT_36_Bool .def_254))
(define-fun .def_256 () Bool (and .def_82 .def_255))
(define-fun .def_107 () Bool (= .def_80 hhv_ULTIMATE.start_ULTIMATE.startEXIT_36_Bool))
(define-fun .def_257 () Bool (and .def_107 .def_256))
(define-fun .def_259 () Bool (and .def_257 .def_258))
(define-fun .def_261 () Bool (and .def_259 .def_260))
(define-fun .def_263 () Bool (and .def_261 .def_262))
(define-fun .def_265 () Bool (and .def_263 .def_264))
(define-fun .def_267 () Bool (and .def_265 .def_266))
(define-fun .def_269 () Bool (and .def_267 .def_268))
(define-fun .def_271 () Bool (and .def_269 .def_270))
(define-fun .def_273 () Bool (and .def_271 .def_272))
(define-fun .def_275 () Bool (and .def_273 .def_274))
(define-fun .def_277 () Bool (and .def_275 .def_276))
(define-fun .def_279 () Bool (and .def_277 .def_278))
(define-fun .def_281 () Bool (and .def_279 .def_280))
(define-fun .def_283 () Bool (and .def_281 .def_282))
(define-fun .def_285 () Bool (and .def_283 .def_284))
(define-fun .def_293 () Bool (and .def_285 .def_292))
(define-fun .def_301 () Bool (or .def_293 .def_300))
(define-fun .def_304 () Bool (and .def_301 .def_303))
(define-fun .def_252 () Bool (or hhv_ULTIMATE.start_ULTIMATE.startEXIT_36_Bool .def_251))
(define-fun .def_111 () Bool (not .def_110))
(define-fun .def_112 () Bool (or hhv_ULTIMATE.start_ULTIMATE.startEXIT_36_Bool .def_111))
(define-fun .def_104 () Bool (and .def_95 .def_97))
(define-fun .def_105 () Bool (and .def_99 .def_104))
(define-fun .def_106 () Bool (and .loc.5 .def_105))
(define-fun .def_108 () Bool (and .def_106 .def_107))
(define-fun .def_102 () Bool (not .loc.6))
(define-fun .def_109 () Bool (and .def_102 .def_108))
(define-fun .def_113 () Bool (and .def_109 .def_112))
(define-fun .def_253 () Bool (and .def_113 .def_252))
(define-fun .def_305 () Bool (or .def_253 .def_304))
(define-fun .def_86 () Bool (and .def_80 hhv_ULTIMATE.start_ULTIMATE.startEXIT_36_Bool))
(define-fun .def_96 () Bool (and .def_86 .def_95))
(define-fun .def_98 () Bool (and .def_96 .def_97))
(define-fun .def_100 () Bool (and .def_98 .def_99))
(define-fun .def_101 () Bool (and .loc.5 .def_100))
(define-fun .def_103 () Bool (and .def_101 .def_102))
(define-fun .def_306 () Bool (or .def_103 .def_305))
(define-fun .def_324 () Bool (! (and .def_306 .def_323) :trans true))
(define-fun .def_342 () Bool (and .def_84 .def_99))
(define-fun .def_343 () Bool (and .def_80 .def_342))
(define-fun .def_344 () Bool (! (not .def_343) :invar-property 0))
(assert true)
